Minimize

  1.20 x_0_d + 4.50 x_0_d + 9.10 x_0_d + 7.80 x_0_d + 0.90 x_0_d + 7.60 x_1_d + 9.70 x_1_d + 1.50 x_1_d + 0.30 x_1_d + 3.20 x_1_d + 1.20 x_2_d + 2.40 x_2_d + 4.00 x_2_d + 5.50 x_2_d + 6.10 x_2_d + 5.20 x_3_d + 5.10 x_3_d + 4.90 x_3_d + 4.50 x_3_d + 5.60 x_3_d + 10.10 x_4_d + 4.50 x_4_d + 5.30 x_4_d + 4.50 x_4_d + 5.90 x_4_d

Subject To


   c0: x_0_0 + x_0_1 + x_0_2 + x_0_3 + x_0_4 = 1
   c1: x_1_0 + x_1_1 + x_1_2 + x_1_3 + x_1_4 = 1
   c2: x_2_0 + x_2_1 + x_2_2 + x_2_3 + x_2_4 = 1
   c3: x_3_0 + x_3_1 + x_3_2 + x_3_3 + x_3_4 = 1
   c4: x_4_0 + x_4_1 + x_4_2 + x_4_3 + x_4_4 = 1

   d0: x_0_0 + x_1_0 + x_2_0 + x_3_0 + x_4_0 = 1
   d1: x_0_1 + x_1_1 + x_2_1 + x_3_1 + x_4_1 = 1
   d2: x_0_2 + x_1_2 + x_2_2 + x_3_2 + x_4_2 = 1
   d3: x_0_3 + x_1_3 + x_2_3 + x_3_3 + x_4_3 = 1
   d4: x_0_4 + x_1_4 + x_2_4 + x_3_4 + x_4_4 = 1

Binary

x_0_0 x_0_1 x_0_2 x_0_3 x_0_4 x_1_0 x_1_1 x_1_2 x_1_3 x_1_4 x_2_0 x_2_1 x_2_2 x_2_3 x_2_4 x_3_0 x_3_1 x_3_2 x_3_3 x_3_4 x_4_0 x_4_1 x_4_2 x_4_3 x_4_4
End


